n = 100;
C = 471;
w = [989,412,842,988,789,103,859,705,874,316,657,654,377,124,725,62,648,130,711,407,701,581,76,525,962,380,943,344,107,602,245,108,3,755,357,464,252,637,616,593,813,562,357,127,577,573,825,199,846,195,101,67,187,868,192,24,933,705,254,814,356,17,185,357,346,391,543,54,915,950,204,943,947,472,698,84,29,154,470,706,680,725,197,61,767,425,71,53,376,122,99,420,612,855,507,563,433,961,281,310];
p = [989,412,842,988,789,103,859,705,874,316,657,654,377,124,725,62,648,130,711,407,701,581,76,525,962,380,943,344,107,602,245,108,3,755,357,464,252,637,616,593,813,562,357,127,577,573,825,199,846,195,101,67,187,868,192,24,933,705,254,814,356,17,185,357,346,391,543,54,915,950,204,943,947,472,698,84,29,154,470,706,680,725,197,61,767,425,71,53,376,122,99,420,612,855,507,563,433,961,281,310];
